447314
53,39,41,15,73,84,32,101,95,4,91,60,18,63,22,21,55,29,106,34,46,85,61,70,89,102,50,13,30,52,92,5,23,83,74,67,17,19,26,81,16,25,64,33,105,78,2,68,57,27,87,10,42,7,35,37,103,75,14,99,43,58,59,66,44,1,12,98,9,28,80,79,76,24,82,51,48,69,20,100,77,11,45,49,104,71,72,62,40,86,3,96,94,38,47,6,65,8,97,31,90,93,56,88,54,36